p cnf 677 1882
1 0
-38 -20 0
-38 -20 0
38 20 20 0
-39 -10 0
-39 38 0
39 10 -38 0
-40 -9 0
-40 -9 0
40 9 9 0
-41 -7 0
-41 40 0
41 7 -40 0
-42 -14 0
-42 -14 0
42 14 14 0
-43 -12 0
-43 42 0
43 12 -42 0
-44 -18 0
-44 -18 0
44 18 18 0
-45 -16 0
-45 44 0
45 16 -44 0
-46 -23 0
-46 -23 0
46 23 23 0
-47 -21 0
-47 46 0
47 21 -46 0
-48 -27 0
-48 -27 0
48 27 27 0
-49 -25 0
-49 48 0
49 25 -48 0
-50 -4 0
-50 -4 0
50 4 4 0
-51 -31 0
-51 -31 0
51 31 31 0
-52 -36 0
-52 -36 0
52 36 36 0
-53 -51 0
-53 -52 0
53 51 52 0
-54 -50 0
-54 53 0
54 50 -53 0
-55 -49 0
-55 54 0
55 49 -54 0
-56 -47 0
-56 55 0
56 47 -55 0
-57 -45 0
-57 56 0
57 45 -56 0
-58 -43 0
-58 57 0
58 43 -57 0
-59 -41 0
-59 58 0
59 41 -58 0
-60 -39 0
-60 59 0
60 39 -59 0
-61 29 0
-61 -52 0
61 -29 52 0
-62 -50 0
-62 61 0
62 50 -61 0
-63 -49 0
-63 62 0
63 49 -62 0
-64 -47 0
-64 63 0
64 47 -63 0
-65 -45 0
-65 64 0
65 45 -64 0
-66 -43 0
-66 65 0
66 43 -65 0
-67 -41 0
-67 66 0
67 41 -66 0
-68 -39 0
-68 67 0
68 39 -67 0
-69 49 0
-69 49 0
69 -49 -49 0
-70 33 0
-70 -51 0
70 -33 51 0
-71 -50 0
-71 70 0
71 50 -70 0
-72 1 0
-72 71 0
72 -1 -71 0
-73 -69 0
-73 72 0
73 69 -72 0
-74 -47 0
-74 73 0
74 47 -73 0
-75 -45 0
-75 74 0
75 45 -74 0
-76 -43 0
-76 75 0
76 43 -75 0
-77 -41 0
-77 76 0
77 41 -76 0
-78 -39 0
-78 77 0
78 39 -77 0
-79 29 0
-79 33 0
79 -29 -33 0
-80 -50 0
-80 79 0
80 50 -79 0
-81 -49 0
-81 80 0
81 49 -80 0
-82 -47 0
-82 81 0
82 47 -81 0
-83 -45 0
-83 82 0
83 45 -82 0
-84 -43 0
-84 83 0
84 43 -83 0
-85 -41 0
-85 84 0
85 41 -84 0
-86 -39 0
-86 85 0
86 39 -85 0
-87 -51 0
-87 -52 0
87 51 52 0
-88 2 0
-88 87 0
88 -2 -87 0
-89 -49 0
-89 88 0
89 49 -88 0
-90 -47 0
-90 89 0
90 47 -89 0
-91 -45 0
-91 90 0
91 45 -90 0
-92 -43 0
-92 91 0
92 43 -91 0
-93 -41 0
-93 92 0
93 41 -92 0
-94 -39 0
-94 93 0
94 39 -93 0
-95 29 0
-95 -52 0
95 -29 52 0
-96 2 0
-96 95 0
96 -2 -95 0
-97 -49 0
-97 96 0
97 49 -96 0
-98 -47 0
-98 97 0
98 47 -97 0
-99 -45 0
-99 98 0
99 45 -98 0
-100 -43 0
-100 99 0
100 43 -99 0
-101 -41 0
-101 100 0
101 41 -100 0
-102 -39 0
-102 101 0
102 39 -101 0
-103 29 0
-103 33 0
103 -29 -33 0
-104 2 0
-104 103 0
104 -2 -103 0
-105 -49 0
-105 104 0
105 49 -104 0
-106 -47 0
-106 105 0
106 47 -105 0
-107 -45 0
-107 106 0
107 45 -106 0
-108 -43 0
-108 107 0
108 43 -107 0
-109 -41 0
-109 108 0
109 41 -108 0
-110 -39 0
-110 109 0
110 39 -109 0
-111 33 0
-111 -51 0
111 -33 51 0
-112 2 0
-112 111 0
112 -2 -111 0
-113 -49 0
-113 112 0
113 49 -112 0
-114 -47 0
-114 113 0
114 47 -113 0
-115 -45 0
-115 114 0
115 45 -114 0
-116 -43 0
-116 115 0
116 43 -115 0
-117 -41 0
-117 116 0
117 41 -116 0
-118 -39 0
-118 117 0
118 39 -117 0
-119 -110 0
-119 -118 0
119 110 118 0
-120 -102 0
-120 119 0
120 102 -119 0
-121 -94 0
-121 120 0
121 94 -120 0
-122 -86 0
-122 121 0
122 86 -121 0
-123 -78 0
-123 122 0
123 78 -122 0
-124 -68 0
-124 123 0
124 68 -123 0
-125 -60 0
-125 124 0
125 60 -124 0
-126 125 0
-126 125 0
126 -125 -125 0
-127 -20 0
-127 -20 0
127 20 20 0
-128 -10 0
-128 127 0
128 10 -127 0
-129 -9 0
-129 -9 0
129 9 9 0
-130 -7 0
-130 129 0
130 7 -129 0
-131 -14 0
-131 -14 0
131 14 14 0
-132 -12 0
-132 131 0
132 12 -131 0
-133 -18 0
-133 -18 0
133 18 18 0
-134 -16 0
-134 133 0
134 16 -133 0
-135 -23 0
-135 -23 0
135 23 23 0
-136 -21 0
-136 135 0
136 21 -135 0
-137 -27 0
-137 -27 0
137 27 27 0
-138 -25 0
-138 137 0
138 25 -137 0
-139 -4 0
-139 -4 0
139 4 4 0
-140 -31 0
-140 -31 0
140 31 31 0
-141 -36 0
-141 -36 0
141 36 36 0
-142 -140 0
-142 -141 0
142 140 141 0
-143 -139 0
-143 142 0
143 139 -142 0
-144 -138 0
-144 143 0
144 138 -143 0
-145 -136 0
-145 144 0
145 136 -144 0
-146 -134 0
-146 145 0
146 134 -145 0
-147 -132 0
-147 146 0
147 132 -146 0
-148 -130 0
-148 147 0
148 130 -147 0
-149 -128 0
-149 148 0
149 128 -148 0
-150 29 0
-150 -141 0
150 -29 141 0
-151 -139 0
-151 150 0
151 139 -150 0
-152 -138 0
-152 151 0
152 138 -151 0
-153 -136 0
-153 152 0
153 136 -152 0
-154 -134 0
-154 153 0
154 134 -153 0
-155 -132 0
-155 154 0
155 132 -154 0
-156 -130 0
-156 155 0
156 130 -155 0
-157 -128 0
-157 156 0
157 128 -156 0
-158 33 0
-158 -140 0
158 -33 140 0
-159 -139 0
-159 158 0
159 139 -158 0
-160 -138 0
-160 159 0
160 138 -159 0
-161 -136 0
-161 160 0
161 136 -160 0
-162 -134 0
-162 161 0
162 134 -161 0
-163 -132 0
-163 162 0
163 132 -162 0
-164 -130 0
-164 163 0
164 130 -163 0
-165 -128 0
-165 164 0
165 128 -164 0
-166 29 0
-166 33 0
166 -29 -33 0
-167 -139 0
-167 166 0
167 139 -166 0
-168 -138 0
-168 167 0
168 138 -167 0
-169 -136 0
-169 168 0
169 136 -168 0
-170 -134 0
-170 169 0
170 134 -169 0
-171 -132 0
-171 170 0
171 132 -170 0
-172 -130 0
-172 171 0
172 130 -171 0
-173 -128 0
-173 172 0
173 128 -172 0
-174 -140 0
-174 -141 0
174 140 141 0
-175 2 0
-175 174 0
175 -2 -174 0
-176 -138 0
-176 175 0
176 138 -175 0
-177 -136 0
-177 176 0
177 136 -176 0
-178 -134 0
-178 177 0
178 134 -177 0
-179 -132 0
-179 178 0
179 132 -178 0
-180 -130 0
-180 179 0
180 130 -179 0
-181 -128 0
-181 180 0
181 128 -180 0
-182 29 0
-182 -141 0
182 -29 141 0
-183 2 0
-183 182 0
183 -2 -182 0
-184 -138 0
-184 183 0
184 138 -183 0
-185 -136 0
-185 184 0
185 136 -184 0
-186 -134 0
-186 185 0
186 134 -185 0
-187 -132 0
-187 186 0
187 132 -186 0
-188 -130 0
-188 187 0
188 130 -187 0
-189 -128 0
-189 188 0
189 128 -188 0
-190 29 0
-190 33 0
190 -29 -33 0
-191 2 0
-191 190 0
191 -2 -190 0
-192 -138 0
-192 191 0
192 138 -191 0
-193 -136 0
-193 192 0
193 136 -192 0
-194 -134 0
-194 193 0
194 134 -193 0
-195 -132 0
-195 194 0
195 132 -194 0
-196 -130 0
-196 195 0
196 130 -195 0
-197 -128 0
-197 196 0
197 128 -196 0
-198 33 0
-198 -140 0
198 -33 140 0
-199 2 0
-199 198 0
199 -2 -198 0
-200 -138 0
-200 199 0
200 138 -199 0
-201 -136 0
-201 200 0
201 136 -200 0
-202 -134 0
-202 201 0
202 134 -201 0
-203 -132 0
-203 202 0
203 132 -202 0
-204 -130 0
-204 203 0
204 130 -203 0
-205 -128 0
-205 204 0
205 128 -204 0
-206 -197 0
-206 -205 0
206 197 205 0
-207 -189 0
-207 206 0
207 189 -206 0
-208 -181 0
-208 207 0
208 181 -207 0
-209 -173 0
-209 208 0
209 173 -208 0
-210 -165 0
-210 209 0
210 165 -209 0
-211 -157 0
-211 210 0
211 157 -210 0
-212 -149 0
-212 211 0
212 149 -211 0
-213 212 0
-213 212 0
213 -212 -212 0
-214 126 0
-214 -213 0
-215 -126 0
-215 213 0
216 214 215 0
-217 125 0
-217 125 0
217 -125 -125 0
-218 2 0
-218 -217 0
218 -2 217 0
-219 50 0
-219 -218 0
219 -50 218 0
-220 -5 0
-220 219 0
220 5 -219 0
-221 33 0
-221 -217 0
221 -33 217 0
-222 52 0
-222 -221 0
222 -52 221 0
-223 -37 0
-223 222 0
223 37 -222 0
-224 29 0
-224 -217 0
224 -29 217 0
-225 51 0
-225 -224 0
225 -51 224 0
-226 -32 0
-226 225 0
226 32 -225 0
-227 -49 0
-227 -217 0
227 49 217 0
-228 -28 0
-228 48 0
228 28 -48 0
-229 -227 0
-229 228 0
229 227 -228 0
-230 -47 0
-230 -217 0
230 47 217 0
-231 -24 0
-231 46 0
231 24 -46 0
-232 -230 0
-232 231 0
232 230 -231 0
-233 -45 0
-233 -217 0
233 45 217 0
-234 -19 0
-234 44 0
234 19 -44 0
-235 -233 0
-235 234 0
235 233 -234 0
-236 -43 0
-236 -217 0
236 43 217 0
-237 -15 0
-237 42 0
237 15 -42 0
-238 -236 0
-238 237 0
238 236 -237 0
-239 -39 0
-239 -217 0
239 39 217 0
-240 -34 0
-240 38 0
240 34 -38 0
-241 -239 0
-241 240 0
241 239 -240 0
-242 -41 0
-242 -217 0
242 41 217 0
-243 -11 0
-243 40 0
243 11 -40 0
-244 -242 0
-244 243 0
244 242 -243 0
-245 -241 0
-245 -244 0
245 241 244 0
-246 -238 0
-246 245 0
246 238 -245 0
-247 -235 0
-247 246 0
247 235 -246 0
-248 -232 0
-248 247 0
248 232 -247 0
-249 -229 0
-249 248 0
249 229 -248 0
-250 -226 0
-250 249 0
250 226 -249 0
-251 -223 0
-251 250 0
251 223 -250 0
-252 -220 0
-252 251 0
252 220 -251 0
-253 -252 0
-253 -252 0
253 252 252 0
-254 212 0
-254 212 0
254 -212 -212 0
-255 2 0
-255 -254 0
255 -2 254 0
-256 139 0
-256 -255 0
256 -139 255 0
-257 -5 0
-257 256 0
257 5 -256 0
-258 33 0
-258 -254 0
258 -33 254 0
-259 141 0
-259 -258 0
259 -141 258 0
-260 -37 0
-260 259 0
260 37 -259 0
-261 29 0
-261 -254 0
261 -29 254 0
-262 140 0
-262 -261 0
262 -140 261 0
-263 -32 0
-263 262 0
263 32 -262 0
-264 -138 0
-264 -254 0
264 138 254 0
-265 -28 0
-265 137 0
265 28 -137 0
-266 -264 0
-266 265 0
266 264 -265 0
-267 -136 0
-267 -254 0
267 136 254 0
-268 -24 0
-268 135 0
268 24 -135 0
-269 -267 0
-269 268 0
269 267 -268 0
-270 -134 0
-270 -254 0
270 134 254 0
-271 -19 0
-271 133 0
271 19 -133 0
-272 -270 0
-272 271 0
272 270 -271 0
-273 -132 0
-273 -254 0
273 132 254 0
-274 -15 0
-274 131 0
274 15 -131 0
-275 -273 0
-275 274 0
275 273 -274 0
-276 -128 0
-276 -254 0
276 128 254 0
-277 -34 0
-277 127 0
277 34 -127 0
-278 -276 0
-278 277 0
278 276 -277 0
-279 -130 0
-279 -254 0
279 130 254 0
-280 -11 0
-280 129 0
280 11 -129 0
-281 -279 0
-281 280 0
281 279 -280 0
-282 -278 0
-282 -281 0
282 278 281 0
-283 -275 0
-283 282 0
283 275 -282 0
-284 -272 0
-284 283 0
284 272 -283 0
-285 -269 0
-285 284 0
285 269 -284 0
-286 -266 0
-286 285 0
286 266 -285 0
-287 -263 0
-287 286 0
287 263 -286 0
-288 -260 0
-288 287 0
288 260 -287 0
-289 -257 0
-289 288 0
289 257 -288 0
-290 -289 0
-290 -289 0
290 289 289 0
-291 253 0
-291 -290 0
-292 -253 0
-292 290 0
293 291 292 0
294 -216 -293 0
-295 -252 0
-295 -252 0
295 252 252 0
-296 -220 0
-296 -295 0
296 220 295 0
-297 -6 0
-297 219 0
297 6 -219 0
-298 -296 0
-298 297 0
298 296 -297 0
-299 -244 0
-299 -295 0
299 244 295 0
-300 -13 0
-300 40 0
300 13 -40 0
-301 -242 0
-301 300 0
301 242 -300 0
-302 -299 0
-302 301 0
302 299 -301 0
-303 -238 0
-303 -295 0
303 238 295 0
-304 -17 0
-304 42 0
304 17 -42 0
-305 -236 0
-305 304 0
305 236 -304 0
-306 -303 0
-306 305 0
306 303 -305 0
-307 -235 0
-307 -295 0
307 235 295 0
-308 -22 0
-308 44 0
308 22 -44 0
-309 -233 0
-309 308 0
309 233 -308 0
-310 -307 0
-310 309 0
310 307 -309 0
-311 -232 0
-311 -295 0
311 232 295 0
-312 -26 0
-312 46 0
312 26 -46 0
-313 -230 0
-313 312 0
313 230 -312 0
-314 -311 0
-314 313 0
314 311 -313 0
-315 -229 0
-315 -295 0
315 229 295 0
-316 -30 0
-316 48 0
316 30 -48 0
-317 -227 0
-317 316 0
317 227 -316 0
-318 -315 0
-318 317 0
318 315 -317 0
-319 -226 0
-319 -295 0
319 226 295 0
-320 -35 0
-320 225 0
320 35 -225 0
-321 -319 0
-321 320 0
321 319 -320 0
-322 -223 0
-322 -295 0
322 223 295 0
-323 -3 0
-323 222 0
323 3 -222 0
-324 -322 0
-324 323 0
324 322 -323 0
-325 -241 0
-325 -295 0
325 241 295 0
-326 -324 0
-326 325 0
326 324 -325 0
-327 -321 0
-327 326 0
327 321 -326 0
-328 -318 0
-328 327 0
328 318 -327 0
-329 -314 0
-329 328 0
329 314 -328 0
-330 -310 0
-330 329 0
330 310 -329 0
-331 -306 0
-331 330 0
331 306 -330 0
-332 -302 0
-332 331 0
332 302 -331 0
-333 -298 0
-333 332 0
333 298 -332 0
-334 -321 0
-334 -324 0
334 321 324 0
-335 -318 0
-335 334 0
335 318 -334 0
-336 -314 0
-336 335 0
336 314 -335 0
-337 -310 0
-337 336 0
337 310 -336 0
-338 -306 0
-338 337 0
338 306 -337 0
-339 -302 0
-339 338 0
339 302 -338 0
-340 -298 0
-340 339 0
340 298 -339 0
-341 239 0
-341 340 0
341 -239 -340 0
-342 -38 0
-342 -324 0
342 38 324 0
-343 -321 0
-343 342 0
343 321 -342 0
-344 -318 0
-344 343 0
344 318 -343 0
-345 -314 0
-345 344 0
345 314 -344 0
-346 -310 0
-346 345 0
346 310 -345 0
-347 -306 0
-347 346 0
347 306 -346 0
-348 -302 0
-348 347 0
348 302 -347 0
-349 -298 0
-349 348 0
349 298 -348 0
-350 8 0
-350 -324 0
350 -8 324 0
-351 -321 0
-351 350 0
351 321 -350 0
-352 -318 0
-352 351 0
352 318 -351 0
-353 -314 0
-353 352 0
353 314 -352 0
-354 -310 0
-354 353 0
354 310 -353 0
-355 -306 0
-355 354 0
355 306 -354 0
-356 -302 0
-356 355 0
356 302 -355 0
-357 -298 0
-357 356 0
357 298 -356 0
-358 -349 0
-358 -357 0
358 349 357 0
-359 -341 0
-359 358 0
359 341 -358 0
-360 -333 0
-360 359 0
360 333 -359 0
-361 360 0
-361 360 0
361 -360 -360 0
-362 -289 0
-362 -289 0
362 289 289 0
-363 -257 0
-363 -362 0
363 257 362 0
-364 -6 0
-364 256 0
364 6 -256 0
-365 -363 0
-365 364 0
365 363 -364 0
-366 -281 0
-366 -362 0
366 281 362 0
-367 -13 0
-367 129 0
367 13 -129 0
-368 -279 0
-368 367 0
368 279 -367 0
-369 -366 0
-369 368 0
369 366 -368 0
-370 -275 0
-370 -362 0
370 275 362 0
-371 -17 0
-371 131 0
371 17 -131 0
-372 -273 0
-372 371 0
372 273 -371 0
-373 -370 0
-373 372 0
373 370 -372 0
-374 -272 0
-374 -362 0
374 272 362 0
-375 -22 0
-375 133 0
375 22 -133 0
-376 -270 0
-376 375 0
376 270 -375 0
-377 -374 0
-377 376 0
377 374 -376 0
-378 -269 0
-378 -362 0
378 269 362 0
-379 -26 0
-379 135 0
379 26 -135 0
-380 -267 0
-380 379 0
380 267 -379 0
-381 -378 0
-381 380 0
381 378 -380 0
-382 -266 0
-382 -362 0
382 266 362 0
-383 -30 0
-383 137 0
383 30 -137 0
-384 -264 0
-384 383 0
384 264 -383 0
-385 -382 0
-385 384 0
385 382 -384 0
-386 -263 0
-386 -362 0
386 263 362 0
-387 -35 0
-387 262 0
387 35 -262 0
-388 -386 0
-388 387 0
388 386 -387 0
-389 -260 0
-389 -362 0
389 260 362 0
-390 -3 0
-390 259 0
390 3 -259 0
-391 -389 0
-391 390 0
391 389 -390 0
-392 -278 0
-392 -362 0
392 278 362 0
-393 -391 0
-393 392 0
393 391 -392 0
-394 -388 0
-394 393 0
394 388 -393 0
-395 -385 0
-395 394 0
395 385 -394 0
-396 -381 0
-396 395 0
396 381 -395 0
-397 -377 0
-397 396 0
397 377 -396 0
-398 -373 0
-398 397 0
398 373 -397 0
-399 -369 0
-399 398 0
399 369 -398 0
-400 -365 0
-400 399 0
400 365 -399 0
-401 -388 0
-401 -391 0
401 388 391 0
-402 -385 0
-402 401 0
402 385 -401 0
-403 -381 0
-403 402 0
403 381 -402 0
-404 -377 0
-404 403 0
404 377 -403 0
-405 -373 0
-405 404 0
405 373 -404 0
-406 -369 0
-406 405 0
406 369 -405 0
-407 -365 0
-407 406 0
407 365 -406 0
-408 276 0
-408 407 0
408 -276 -407 0
-409 -127 0
-409 -391 0
409 127 391 0
-410 -388 0
-410 409 0
410 388 -409 0
-411 -385 0
-411 410 0
411 385 -410 0
-412 -381 0
-412 411 0
412 381 -411 0
-413 -377 0
-413 412 0
413 377 -412 0
-414 -373 0
-414 413 0
414 373 -413 0
-415 -369 0
-415 414 0
415 369 -414 0
-416 -365 0
-416 415 0
416 365 -415 0
-417 8 0
-417 -391 0
417 -8 391 0
-418 -388 0
-418 417 0
418 388 -417 0
-419 -385 0
-419 418 0
419 385 -418 0
-420 -381 0
-420 419 0
420 381 -419 0
-421 -377 0
-421 420 0
421 377 -420 0
-422 -373 0
-422 421 0
422 373 -421 0
-423 -369 0
-423 422 0
423 369 -422 0
-424 -365 0
-424 423 0
424 365 -423 0
-425 -416 0
-425 -424 0
425 416 424 0
-426 -408 0
-426 425 0
426 408 -425 0
-427 -400 0
-427 426 0
427 400 -426 0
-428 427 0
-428 427 0
428 -427 -427 0
-429 361 0
-429 -428 0
-430 -361 0
-430 428 0
431 429 430 0
432 -294 -431 0
-433 222 0
-433 222 0
433 -222 -222 0
-434 360 0
-434 360 0
434 -360 -360 0
-435 17 0
-435 -434 0
435 -17 434 0
-436 15 0
-436 -295 0
436 -15 295 0
-437 12 0
-437 -217 0
437 -12 217 0
-438 42 0
-438 -437 0
438 -42 437 0
-439 -436 0
-439 438 0
439 436 -438 0
-440 -435 0
-440 439 0
440 435 -439 0
-441 35 0
-441 -434 0
441 -35 434 0
-442 32 0
-442 -295 0
442 -32 295 0
-443 225 0
-443 -442 0
443 -225 442 0
-444 -441 0
-444 443 0
444 441 -443 0
-445 252 0
-445 -360 0
445 -252 360 0
-446 -444 0
-446 445 0
446 444 -445 0
-447 -440 0
-447 446 0
447 440 -446 0
-448 -433 0
-448 447 0
448 433 -447 0
-449 -37 0
-449 -37 0
449 37 37 0
-450 -360 0
-450 -449 0
450 360 449 0
-451 -444 0
-451 450 0
451 444 -450 0
-452 -440 0
-452 451 0
452 440 -451 0
-453 -433 0
-453 452 0
453 433 -452 0
-454 -3 0
-454 -3 0
454 3 3 0
-455 252 0
-455 -454 0
455 -252 454 0
-456 -444 0
-456 455 0
456 444 -455 0
-457 -440 0
-457 456 0
457 440 -456 0
-458 -433 0
-458 457 0
458 433 -457 0
-459 -449 0
-459 -454 0
459 449 454 0
-460 -444 0
-460 459 0
460 444 -459 0
-461 -440 0
-461 460 0
461 440 -460 0
-462 -433 0
-462 461 0
462 433 -461 0
-463 13 0
-463 -434 0
463 -13 434 0
-464 11 0
-464 -295 0
464 -11 295 0
-465 7 0
-465 -217 0
465 -7 217 0
-466 40 0
-466 -465 0
466 -40 465 0
-467 -464 0
-467 466 0
467 464 -466 0
-468 -463 0
-468 467 0
468 463 -467 0
-469 26 0
-469 -434 0
469 -26 434 0
-470 24 0
-470 -295 0
470 -24 295 0
-471 21 0
-471 -217 0
471 -21 217 0
-472 46 0
-472 -471 0
472 -46 471 0
-473 -470 0
-473 472 0
473 470 -472 0
-474 -469 0
-474 473 0
474 469 -473 0
-475 22 0
-475 -434 0
475 -22 434 0
-476 19 0
-476 -295 0
476 -19 295 0
-477 16 0
-477 -217 0
477 -16 217 0
-478 44 0
-478 -477 0
478 -44 477 0
-479 -476 0
-479 478 0
479 476 -478 0
-480 -475 0
-480 479 0
480 475 -479 0
-481 -474 0
-481 -480 0
481 474 480 0
-482 -440 0
-482 481 0
482 440 -481 0
-483 -468 0
-483 482 0
483 468 -482 0
-484 483 0
-484 483 0
484 -483 -483 0
-485 27 0
-485 -484 0
485 -27 484 0
-486 -125 0
-486 485 0
486 125 -485 0
-487 252 0
-487 486 0
487 -252 -486 0
-488 -360 0
-488 487 0
488 360 -487 0
-489 -28 0
-489 -28 0
489 28 28 0
-490 27 0
-490 -489 0
490 -27 489 0
-491 -484 0
-491 490 0
491 484 -490 0
-492 -125 0
-492 491 0
492 125 -491 0
-493 -360 0
-493 492 0
493 360 -492 0
-494 -30 0
-494 -30 0
494 30 30 0
-495 27 0
-495 -494 0
495 -27 494 0
-496 -484 0
-496 495 0
496 484 -495 0
-497 -125 0
-497 496 0
497 125 -496 0
-498 252 0
-498 497 0
498 -252 -497 0
-499 27 0
-499 -489 0
499 -27 489 0
-500 -494 0
-500 499 0
500 494 -499 0
-501 -484 0
-501 500 0
501 484 -500 0
-502 -125 0
-502 501 0
502 125 -501 0
-503 -69 0
-503 -484 0
503 69 484 0
-504 252 0
-504 503 0
504 -252 -503 0
-505 -360 0
-505 504 0
505 360 -504 0
-506 -484 0
-506 -489 0
506 484 489 0
-507 -69 0
-507 506 0
507 69 -506 0
-508 -360 0
-508 507 0
508 360 -507 0
-509 -484 0
-509 -494 0
509 484 494 0
-510 -69 0
-510 509 0
510 69 -509 0
-511 252 0
-511 510 0
511 -252 -510 0
-512 468 0
-512 468 0
512 -468 -468 0
-513 -28 0
-513 -30 0
513 28 30 0
-514 483 0
-514 513 0
514 -483 -513 0
-515 49 0
-515 514 0
515 -49 -514 0
-516 512 0
-516 -515 0
516 -512 515 0
-517 -511 0
-517 516 0
517 511 -516 0
-518 -508 0
-518 517 0
518 508 -517 0
-519 -505 0
-519 518 0
519 505 -518 0
-520 -502 0
-520 519 0
520 502 -519 0
-521 -498 0
-521 520 0
521 498 -520 0
-522 -493 0
-522 521 0
522 493 -521 0
-523 -488 0
-523 522 0
523 488 -522 0
-524 480 0
-524 480 0
524 -480 -480 0
-525 -440 0
-525 -524 0
525 440 524 0
-526 523 0
-526 -525 0
526 -523 525 0
-527 -462 0
-527 526 0
527 462 -526 0
-528 -458 0
-528 527 0
528 458 -527 0
-529 -453 0
-529 528 0
529 453 -528 0
-530 -448 0
-530 529 0
530 448 -529 0
-531 530 0
-531 530 0
531 -530 -530 0
-532 444 0
-532 483 0
532 -444 -483 0
-533 440 0
-533 440 0
533 -440 -440 0
-534 523 0
-534 533 0
534 -523 -533 0
-535 -532 0
-535 534 0
535 532 -534 0
-536 535 0
-536 535 0
536 -535 -535 0
-537 -484 0
-537 -536 0
537 484 536 0
-538 -531 0
-538 537 0
538 531 -537 0
-539 -219 0
-539 538 0
539 219 -538 0
-540 -20 0
-540 -539 0
540 20 539 0
-541 8 0
-541 -434 0
541 -8 434 0
-542 10 0
-542 -217 0
542 -10 217 0
-543 34 0
-543 -295 0
543 -34 295 0
-544 -542 0
-544 -543 0
544 542 543 0
-545 -541 0
-545 544 0
545 541 -544 0
-546 -540 0
-546 545 0
546 540 -545 0
-547 259 0
-547 259 0
547 -259 -259 0
-548 427 0
-548 427 0
548 -427 -427 0
-549 17 0
-549 -548 0
549 -17 548 0
-550 15 0
-550 -362 0
550 -15 362 0
-551 12 0
-551 -254 0
551 -12 254 0
-552 131 0
-552 -551 0
552 -131 551 0
-553 -550 0
-553 552 0
553 550 -552 0
-554 -549 0
-554 553 0
554 549 -553 0
-555 35 0
-555 -548 0
555 -35 548 0
-556 32 0
-556 -362 0
556 -32 362 0
-557 262 0
-557 -556 0
557 -262 556 0
-558 -555 0
-558 557 0
558 555 -557 0
-559 289 0
-559 -427 0
559 -289 427 0
-560 -558 0
-560 559 0
560 558 -559 0
-561 -554 0
-561 560 0
561 554 -560 0
-562 -547 0
-562 561 0
562 547 -561 0
-563 -37 0
-563 -37 0
563 37 37 0
-564 -427 0
-564 -563 0
564 427 563 0
-565 -558 0
-565 564 0
565 558 -564 0
-566 -554 0
-566 565 0
566 554 -565 0
-567 -547 0
-567 566 0
567 547 -566 0
-568 -3 0
-568 -3 0
568 3 3 0
-569 289 0
-569 -568 0
569 -289 568 0
-570 -558 0
-570 569 0
570 558 -569 0
-571 -554 0
-571 570 0
571 554 -570 0
-572 -547 0
-572 571 0
572 547 -571 0
-573 -563 0
-573 -568 0
573 563 568 0
-574 -558 0
-574 573 0
574 558 -573 0
-575 -554 0
-575 574 0
575 554 -574 0
-576 -547 0
-576 575 0
576 547 -575 0
-577 13 0
-577 -548 0
577 -13 548 0
-578 11 0
-578 -362 0
578 -11 362 0
-579 7 0
-579 -254 0
579 -7 254 0
-580 129 0
-580 -579 0
580 -129 579 0
-581 -578 0
-581 580 0
581 578 -580 0
-582 -577 0
-582 581 0
582 577 -581 0
-583 26 0
-583 -548 0
583 -26 548 0
-584 24 0
-584 -362 0
584 -24 362 0
-585 21 0
-585 -254 0
585 -21 254 0
-586 135 0
-586 -585 0
586 -135 585 0
-587 -584 0
-587 586 0
587 584 -586 0
-588 -583 0
-588 587 0
588 583 -587 0
-589 22 0
-589 -548 0
589 -22 548 0
-590 19 0
-590 -362 0
590 -19 362 0
-591 16 0
-591 -254 0
591 -16 254 0
-592 133 0
-592 -591 0
592 -133 591 0
-593 -590 0
-593 592 0
593 590 -592 0
-594 -589 0
-594 593 0
594 589 -593 0
-595 -588 0
-595 -594 0
595 588 594 0
-596 -554 0
-596 595 0
596 554 -595 0
-597 -582 0
-597 596 0
597 582 -596 0
-598 597 0
-598 597 0
598 -597 -597 0
-599 27 0
-599 -598 0
599 -27 598 0
-600 -212 0
-600 599 0
600 212 -599 0
-601 289 0
-601 600 0
601 -289 -600 0
-602 -427 0
-602 601 0
602 427 -601 0
-603 -28 0
-603 -28 0
603 28 28 0
-604 27 0
-604 -603 0
604 -27 603 0
-605 -598 0
-605 604 0
605 598 -604 0
-606 -212 0
-606 605 0
606 212 -605 0
-607 -427 0
-607 606 0
607 427 -606 0
-608 -30 0
-608 -30 0
608 30 30 0
-609 27 0
-609 -608 0
609 -27 608 0
-610 -598 0
-610 609 0
610 598 -609 0
-611 -212 0
-611 610 0
611 212 -610 0
-612 289 0
-612 611 0
612 -289 -611 0
-613 27 0
-613 -603 0
613 -27 603 0
-614 -608 0
-614 613 0
614 608 -613 0
-615 -598 0
-615 614 0
615 598 -614 0
-616 -212 0
-616 615 0
616 212 -615 0
-617 138 0
-617 138 0
617 -138 -138 0
-618 -598 0
-618 -617 0
618 598 617 0
-619 289 0
-619 618 0
619 -289 -618 0
-620 -427 0
-620 619 0
620 427 -619 0
-621 -598 0
-621 -603 0
621 598 603 0
-622 -617 0
-622 621 0
622 617 -621 0
-623 -427 0
-623 622 0
623 427 -622 0
-624 -598 0
-624 -608 0
624 598 608 0
-625 -617 0
-625 624 0
625 617 -624 0
-626 289 0
-626 625 0
626 -289 -625 0
-627 582 0
-627 582 0
627 -582 -582 0
-628 -28 0
-628 -30 0
628 28 30 0
-629 597 0
-629 628 0
629 -597 -628 0
-630 138 0
-630 629 0
630 -138 -629 0
-631 627 0
-631 -630 0
631 -627 630 0
-632 -626 0
-632 631 0
632 626 -631 0
-633 -623 0
-633 632 0
633 623 -632 0
-634 -620 0
-634 633 0
634 620 -633 0
-635 -616 0
-635 634 0
635 616 -634 0
-636 -612 0
-636 635 0
636 612 -635 0
-637 -607 0
-637 636 0
637 607 -636 0
-638 -602 0
-638 637 0
638 602 -637 0
-639 594 0
-639 594 0
639 -594 -594 0
-640 -554 0
-640 -639 0
640 554 639 0
-641 638 0
-641 -640 0
641 -638 640 0
-642 -576 0
-642 641 0
642 576 -641 0
-643 -572 0
-643 642 0
643 572 -642 0
-644 -567 0
-644 643 0
644 567 -643 0
-645 -562 0
-645 644 0
645 562 -644 0
-646 645 0
-646 645 0
646 -645 -645 0
-647 558 0
-647 597 0
647 -558 -597 0
-648 554 0
-648 554 0
648 -554 -554 0
-649 638 0
-649 648 0
649 -638 -648 0
-650 -647 0
-650 649 0
650 647 -649 0
-651 650 0
-651 650 0
651 -650 -650 0
-652 -598 0
-652 -651 0
652 598 651 0
-653 -646 0
-653 652 0
653 646 -652 0
-654 -256 0
-654 653 0
654 256 -653 0
-655 -20 0
-655 -654 0
655 20 654 0
-656 8 0
-656 -548 0
656 -8 548 0
-657 10 0
-657 -254 0
657 -10 254 0
-658 34 0
-658 -362 0
658 -34 362 0
-659 -657 0
-659 -658 0
659 657 658 0
-660 -656 0
-660 659 0
660 656 -659 0
-661 -655 0
-661 660 0
661 655 -660 0
-662 546 0
-662 -661 0
-663 -546 0
-663 661 0
664 662 663 0
665 -432 -664 0
-666 483 0
-666 -597 0
-667 -483 0
-667 597 0
668 666 667 0
669 -665 -668 0
-670 535 0
-670 -650 0
-671 -535 0
-671 650 0
672 670 671 0
673 -669 -672 0
-674 530 0
-674 -645 0
-675 -530 0
-675 645 0
676 674 675 0
677 -673 -676 0
-677 0
